46
75
52	12
51	15
50	10
49	7
48	8
47	10
46	9
45	13
44	13
43	13
42	11
41	14
40	11
39	8
38	12
37	7
36	8
35	19
34	9
33	8
32	12
31	8
30	12
29	7
28	10
27	11
26	12
25	8
24	9
23	8
22	8
21	14
20	10
19	8
18	15
17	20
16	7
15	16
14	11
13	15
12	11
11	5
10	8
9	16
8	10
7	12
